% File represents an instance of a Composite Structure problem to be solved by a CP framework
% Created on 2025-03-25 14:05:13.603
T = 55;
n = 4;
m = 4;
edges = [(2, 1),
(4, 3),
(3, 1),
(2, 4)];
counts = [|11, 4, 10, 20,
|11, 5, 18, 21,
|11, 4, 10, 21,
|11, 5, 10, 21|];
